QPLIB_3565
QBB
maximize
276 # number of variables
528 # number of quadratic terms in objective
36 1 -4.0
122 1 -4.0
123 1 4.0
136 1 4.0
27 2 4.0
140 2 -4.0
217 2 4.0
239 2 -4.0
4 3 4.0
95 3 -4.0
246 3 4.0
247 3 -4.0
13 4 -4.0
96 4 -4.0
274 4 4.0
6 5 4.0
51 5 4.0
105 5 -4.0
166 5 -4.0
35 6 4.0
98 6 -4.0
100 6 -4.0
18 7 -4.0
95 7 4.0
219 7 4.0
243 7 -4.0
9 8 4.0
10 8 -4.0
41 8 4.0
108 8 -4.0
30 9 4.0
97 9 -4.0
98 9 -4.0
50 10 4.0
52 10 4.0
102 10 -4.0
12 11 4.0
134 11 -4.0
152 11 4.0
169 11 -4.0
41 12 -4.0
51 12 -4.0
208 12 4.0
27 13 -4.0
241 13 4.0
272 13 4.0
22 14 4.0
132 14 -4.0
147 14 4.0
251 14 -4.0
16 15 4.0
121 15 -4.0
151 15 -4.0
170 15 4.0
41 16 -4.0
44 16 4.0
101 16 -4.0
152 17 -4.0
170 17 4.0
190 17 4.0
211 17 -4.0
63 18 4.0
178 18 4.0
268 18 -4.0
140 19 -4.0
243 19 -4.0
244 19 4.0
269 19 4.0
163 20 4.0
203 20 -4.0
223 20 4.0
251 20 -4.0
32 21 -4.0
97 21 -4.0
149 21 4.0
162 21 4.0
97 22 -4.0
227 22 4.0
254 22 -4.0
24 23 4.0
25 23 -4.0
135 23 -4.0
189 23 4.0
99 24 -4.0
101 24 -4.0
231 24 4.0
108 25 -4.0
133 25 4.0
256 25 4.0
54 26 4.0
134 26 -4.0
189 26 4.0
235 26 -4.0
77 27 4.0
175 27 -4.0
29 28 -4.0
147 28 -4.0
183 28 4.0
249 28 4.0
224 29 4.0
99 30 4.0
205 30 -4.0
228 30 -4.0
46 31 4.0
121 31 -4.0
209 31 4.0
262 31 -4.0
33 32 4.0
34 32 -4.0
204 32 4.0
161 33 -4.0
250 34 4.0
101 35 4.0
185 35 -4.0
206 35 -4.0
47 36 4.0
192 36 -4.0
234 36 4.0
83 37 4.0
156 37 -4.0
216 37 -4.0
269 37 4.0
39 38 4.0
40 38 -4.0
131 38 -4.0
225 38 4.0
146 39 -4.0
162 40 4.0
42 41 4.0
166 42 4.0
167 42 -4.0
187 42 -4.0
44 43 4.0
114 43 -4.0
122 43 -4.0
261 43 4.0
89 44 -4.0
207 44 -4.0
75 45 4.0
103 45 4.0
122 45 -4.0
261 45 -4.0
103 46 -4.0
153 46 -4.0
236 46 4.0
103 47 -4.0
112 47 4.0
117 47 -4.0
79 48 4.0
139 48 -4.0
194 48 -4.0
241 48 4.0
78 49 4.0
146 49 -4.0
88 50 -4.0
251 50 4.0
253 50 -4.0
52 51 4.0
169 51 -4.0
150 52 -4.0
168 52 -4.0
72 53 4.0
104 53 4.0
123 53 -4.0
233 53 -4.0
104 54 -4.0
171 54 -4.0
212 54 4.0
76 55 4.0
126 55 -4.0
174 55 -4.0
219 55 4.0
105 56 4.0
132 56 -4.0
187 56 4.0
253 56 -4.0
106 57 4.0
115 57 -4.0
153 57 4.0
210 57 -4.0
62 58 -4.0
156 58 -4.0
196 58 4.0
270 58 4.0
67 59 4.0
113 59 -4.0
128 59 4.0
142 59 -4.0
84 60 -4.0
88 60 -4.0
204 60 4.0
249 60 4.0
65 61 -4.0
109 61 4.0
111 61 -4.0
171 61 4.0
63 62 4.0
110 62 -4.0
265 62 4.0
139 63 -4.0
140 63 -4.0
86 64 -4.0
91 64 -4.0
183 64 4.0
223 64 4.0
89 65 4.0
189 65 4.0
190 65 -4.0
70 66 4.0
127 66 -4.0
129 66 4.0
143 66 -4.0
129 67 -4.0
132 68 -4.0
168 68 -4.0
185 68 4.0
255 68 4.0
121 69 -4.0
152 69 4.0
207 69 4.0
258 69 -4.0
73 70 4.0
74 70 -4.0
118 70 -4.0
167 71 4.0
205 71 -4.0
228 71 4.0
256 71 -4.0
134 72 4.0
135 72 -4.0
234 72 -4.0
76 73 4.0
127 73 -4.0
270 73 -4.0
79 74 4.0
140 74 4.0
141 74 -4.0
213 75 4.0
262 75 -4.0
264 75 -4.0
240 76 -4.0
242 76 -4.0
83 77 4.0
127 77 -4.0
157 77 -4.0
131 78 4.0
145 78 -4.0
148 78 -4.0
218 79 -4.0
220 79 -4.0
168 80 4.0
187 80 -4.0
230 80 -4.0
259 80 4.0
153 81 4.0
259 81 4.0
260 81 -4.0
261 81 -4.0
94 82 4.0
173 82 4.0
236 82 -4.0
263 82 -4.0
195 83 -4.0
197 83 -4.0
162 84 4.0
171 85 4.0
230 85 4.0
231 85 -4.0
233 85 -4.0
250 86 4.0
88 87 4.0
183 87 4.0
185 87 -4.0
205 87 -4.0
250 88 4.0
208 89 4.0
210 89 -4.0
91 90 4.0
204 90 4.0
205 90 -4.0
226 90 -4.0
224 91 4.0
252 91 -4.0
93 92 4.0
222 92 -4.0
273 93 4.0
274 93 -4.0
276 93 -4.0
239 94 4.0
264 94 -4.0
267 94 -4.0
96 95 -4.0
199 95 -4.0
177 96 -4.0
196 96 4.0
163 97 4.0
131 98 -4.0
183 98 4.0
227 99 -4.0
257 99 -4.0
148 100 -4.0
166 100 -4.0
204 100 4.0
254 101 -4.0
164 102 -4.0
166 102 -4.0
225 102 4.0
116 103 -4.0
116 104 -4.0
124 104 -4.0
151 105 -4.0
169 105 -4.0
124 106 -4.0
137 106 -4.0
190 106 -4.0
119 107 -4.0
247 107 -4.0
151 108 -4.0
186 108 4.0
137 109 -4.0
154 109 -4.0
211 109 -4.0
116 110 4.0
126 110 -4.0
137 110 -4.0
154 111 -4.0
172 111 -4.0
235 111 -4.0
126 112 -4.0
139 112 -4.0
154 112 -4.0
143 113 -4.0
134 114 -4.0
229 114 4.0
257 114 -4.0
172 115 -4.0
191 115 -4.0
262 115 -4.0
125 116 -4.0
139 117 -4.0
156 117 -4.0
172 117 -4.0
119 118 4.0
141 118 -4.0
159 118 -4.0
120 119 -4.0
158 119 -4.0
159 120 -4.0
122 121 -4.0
191 123 -4.0
213 123 -4.0
138 124 -4.0
265 124 -4.0
156 125 -4.0
174 125 -4.0
191 125 -4.0
175 126 -4.0
128 127 -4.0
157 128 -4.0
181 128 -4.0
130 129 -4.0
180 129 -4.0
181 130 -4.0
149 131 -4.0
149 132 -4.0
135 133 -4.0
170 133 4.0
188 133 4.0
136 135 -4.0
232 136 4.0
234 136 4.0
155 137 -4.0
174 138 -4.0
194 138 -4.0
213 138 -4.0
142 141 -4.0
178 141 -4.0
179 142 -4.0
201 142 -4.0
144 143 -4.0
200 143 -4.0
201 144 -4.0
161 145 -4.0
148 146 -4.0
251 146 -4.0
165 147 4.0
250 147 4.0
165 148 -4.0
150 149 -4.0
165 150 -4.0
186 150 4.0
259 151 4.0
153 152 4.0
173 154 -4.0
194 155 -4.0
216 155 -4.0
264 155 4.0
158 157 -4.0
197 157 -4.0
198 158 -4.0
222 158 -4.0
160 159 -4.0
273 159 -4.0
222 160 -4.0
164 161 -4.0
225 161 -4.0
164 162 -4.0
184 163 4.0
224 163 4.0
184 164 -4.0
167 165 -4.0
184 167 -4.0
257 168 -4.0
230 169 4.0
171 170 4.0
193 172 -4.0
216 173 -4.0
238 173 -4.0
176 174 -4.0
177 175 -4.0
267 175 -4.0
177 176 -4.0
238 176 -4.0
269 176 -4.0
178 177 -4.0
179 178 -4.0
180 179 -4.0
220 179 -4.0
221 180 -4.0
246 180 -4.0
182 181 -4.0
245 181 -4.0
246 182 -4.0
185 184 -4.0
206 186 4.0
226 186 -4.0
188 187 -4.0
206 188 -4.0
208 188 -4.0
259 189 4.0
212 190 -4.0
215 191 -4.0
212 192 -4.0
215 192 -4.0
265 192 -4.0
214 193 4.0
238 193 -4.0
266 193 -4.0
195 194 -4.0
241 195 -4.0
266 195 -4.0
197 196 4.0
240 196 -4.0
198 197 -4.0
200 198 -4.0
242 198 -4.0
222 199 4.0
243 199 -4.0
275 199 -4.0
244 200 -4.0
275 200 -4.0
202 201 -4.0
274 201 -4.0
275 202 -4.0
224 203 -4.0
207 206 -4.0
228 207 -4.0
232 208 4.0
210 209 4.0
230 209 4.0
260 209 -4.0
211 210 -4.0
236 211 -4.0
214 212 -4.0
237 213 -4.0
236 214 -4.0
237 214 -4.0
217 215 -4.0
266 215 -4.0
218 216 -4.0
218 217 -4.0
237 217 -4.0
219 218 -4.0
220 219 4.0
221 220 -4.0
271 221 -4.0
273 221 -4.0
252 225 4.0
227 226 -4.0
252 226 -4.0
255 227 -4.0
229 228 -4.0
231 229 -4.0
255 229 -4.0
232 231 -4.0
233 232 4.0
235 233 -4.0
263 234 4.0
263 235 -4.0
239 237 -4.0
240 238 -4.0
240 239 -4.0
242 241 4.0
244 242 -4.0
245 243 4.0
245 244 -4.0
247 245 -4.0
248 246 -4.0
248 247 -4.0
253 252 -4.0
254 253 -4.0
256 254 -4.0
258 255 -4.0
258 256 -4.0
260 257 4.0
260 258 -4.0
262 261 -4.0
264 263 -4.0
267 265 -4.0
268 266 -4.0
268 267 -4.0
270 268 -4.0
271 269 4.0
271 270 -4.0
272 271 -4.0
273 272 -4.0
274 272 -4.0
276 275 -4.0
0.0 # default value for linear coefficients in objective
182 # number of non-default linear coefficients in objective
95 2.0
96 2.0
97 2.0
98 2.0
99 2.0
100 2.0
101 2.0
102 2.0
103 2.0
104 2.0
105 2.0
106 2.0
107 2.0
108 2.0
109 2.0
110 2.0
111 4.0
112 2.0
113 2.0
114 2.0
115 4.0
116 2.0
117 4.0
118 2.0
119 2.0
120 2.0
121 4.0
122 4.0
123 2.0
124 4.0
125 4.0
126 4.0
127 4.0
128 2.0
129 2.0
130 2.0
131 2.0
132 4.0
133 -2.0
134 2.0
135 4.0
136 -2.0
137 4.0
138 4.0
139 4.0
140 2.0
141 4.0
142 4.0
143 4.0
144 2.0
145 2.0
146 4.0
147 -2.0
148 4.0
149 2.0
150 2.0
151 2.0
152 -2.0
153 -2.0
154 4.0
155 2.0
156 4.0
157 4.0
158 4.0
159 4.0
160 2.0
161 4.0
162 -2.0
163 -4.0
164 4.0
165 2.0
166 2.0
167 2.0
168 2.0
169 2.0
170 -4.0
171 -2.0
172 4.0
173 2.0
174 4.0
175 4.0
176 4.0
177 4.0
178 2.0
179 4.0
180 4.0
181 4.0
182 2.0
183 -4.0
184 2.0
185 2.0
186 -2.0
187 2.0
188 2.0
189 -4.0
190 2.0
191 4.0
192 4.0
193 2.0
194 4.0
195 4.0
196 -2.0
197 2.0
198 4.0
199 2.0
200 4.0
201 4.0
202 2.0
203 2.0
204 -4.0
205 4.0
206 2.0
207 2.0
208 -2.0
209 -2.0
210 2.0
211 4.0
212 2.0
213 2.0
214 2.0
215 4.0
216 4.0
217 2.0
218 4.0
219 -2.0
220 2.0
221 4.0
222 2.0
223 -2.0
224 -2.0
225 -2.0
226 4.0
227 2.0
228 2.0
229 2.0
230 -2.0
231 2.0
232 -2.0
233 2.0
234 -2.0
235 4.0
236 2.0
237 4.0
238 4.0
239 2.0
240 4.0
241 -2.0
242 2.0
243 2.0
244 2.0
245 2.0
246 2.0
247 4.0
248 2.0
249 -2.0
250 -4.0
251 2.0
252 2.0
253 4.0
254 4.0
255 2.0
256 2.0
257 2.0
258 4.0
259 -4.0
260 2.0
261 2.0
262 4.0
263 2.0
264 2.0
265 2.0
266 4.0
267 4.0
268 4.0
269 -2.0
270 2.0
271 2.0
272 2.0
273 2.0
274 2.0
275 4.0
276 2.0
0.0 # objective constant
1.79769313486232E+308 # value for infinity
0.0 # default variable primal value in starting point
0 # number of non-default variable primal values in starting point
0.0 # default variable bound dual value in starting point
0 # number of non-default variable bound dual values in starting point
0 # number of non-default variable names
0 # number of non-default constraint names
